5	15
9 84	10 56	11 70	12 30	14 17	5 54	8 44	13 81	4 32	6 70	7 12	1 88	3 89	2 98	0 31
13 37	6 77	0 4	1 71	2 99	7 82	14 52	3 93	4 64	11 26	10 49	5 86	12 73	8 17	9 63
12 36	13 15	9 51	8 90	11 48	7 81	14 86	10 61	5 60	6 80	3 63	1 95	2 14	4 80	0 6
9 54	2 32	3 98	8 40	4 36	13 14	11 24	7 8	5 69	14 45	0 30	6 7	1 22	12 67	10 45
1 75	12 29	0 89	13 97	7 89	10 87	2 89	8 92	11 80	3 31	4 25	5 56	14 68	9 61	6 43
